unsat
(:binary-propagations  11
 :conflicts            1
 :final-checks         1
 :max-generation       1
 :max-memory           23.27
 :memory               20.84
 :mk-bool-var          520
 :mk-clause            189
 :mk-clause-binary     631
 :num-allocs           6249769
 :num-checks           1
 :propagations         11
 :quant-instantiations 98
 :restarts             1
 :rlimit-count         67746
 :time                 0.02)
